NAME : coverage_path
TYPE : ATSP
DIMENSION : 5
EDGE_WEIGHT_TYPE : EXPLICIT
EDGE_WEIGHT_FORMAT : FULL_MATRIX
EDGE_WEIGHT_SECTION
0 201365 200882 201511 272 
0 0 260 179 475 
0 260 0 316 254 
0 179 316 0 527 
0 475 254 527 0 
EOF